SimulationType                MonteCarlo
NumberOfCycles                1000000 
NumberOfInitializationCycles  10000 
PrintEvery                    1000
RestartFile                   yes

Framework 0
FrameworkName IRMOF-1
UnitCells 1 1 1 
ExternalTemperature 92
ExternalPressure 500

CutOffVDW 12.0
RemoveAtomNumberCodeFromLabel yes

Component 0 MoleculeName             methane
            TranslationProbability   1.0
            ReinsertionProbability   1.0
            GhostSwapProbability     2.0
            CreateNumberOfMolecules  1
