SimulationType                 MonteCarlo
NumberOfCycles                 2500000
NumberOfInitializationCycles   1000
PrintEvery                     2500
RestartFile                    yes

ContinueAfterCrash             no
WriteBinaryRestartFileEvery    2500

Forcefield                     local
CutOffVDW                      12.0
RemoveAtomNumberCodeFromLabel  yes
ChargeMethod                   None

Framework 0
FrameworkName         IRMOF-1
UnitCells             1 1 1
ExternalTemperature   102
ExternalPressure      100

ComputeDensityProfile3DVTKGrid       yes
WriteDensityProfile3DVTKGridEvery    2500
DensityProfile3DVTKGridPoints        100 100 100
AverageDensityOverUnitCellsVTK       yes
DensityAveragingTypeVTK              UnitCell

NumberOfGrids    1
GridTypes        CH4_sp3
UseTabularGrid   yes
SpacingVDWGrid   0.10

Component 0 MoleculeName             methane
            TranslationProbability   1.0
            ReinsertionProbability   1.0
            SwapProbability          1.0
            CreateNumberOfMolecules  0
