SimulationType                MonteCarlo
NumberOfCycles                700000 
NumberOfInitializationCycles  200000 
PrintEvery                    7000
RestartFile                   yes

Framework 0
FrameworkName IRMOF-1
UnitCells 1 1 1 
ExternalTemperature 92
ExternalPressure 1

CutOffVDW 12.0

Component 0 MoleculeName             methane
            TranslationProbability   1.0
            ReinsertionProbability   1.0
            SwapProbability          1.0
            CreateNumberOfMolecules  0
